# Solution for model problem_
# Objective value = 8.9237082945061455e+04
x(0_0) 0
x(0_1) 0
x(0_2) 0
x(0_3) 0
x(0_4) 1
x(0_5) 0
x(0_6) 0
x(0_7) 0
x(0_8) 0
x(0_9) 0
x(0_10) 0
x(1_11) 0
x(1_12) 1
x(1_13) 0
x(1_14) 0
x(1_15) 0
x(1_16) 0
x(1_17) 0
x(1_18) 0
x(1_19) 0
x(1_20) 0
x(1_21) 0
x(1_22) 0
x(1_23) 0
x(1_24) 0
x(2_25) 0
x(2_26) 0
x(2_27) 0
x(2_28) 0
x(2_29) 0
x(2_30) 0
x(2_31) 0
x(2_32) 0
x(2_33) 0
x(2_34) 0
x(2_35) 0
x(2_36) 0
x(2_37) 1
x(2_38) 0
x(2_39) 0
x(2_40) 0
x(2_41) 0
x(3_42) 0
x(3_43) 0
x(3_44) 0
x(3_45) 0
x(3_46) 0
x(3_47) 0
x(3_48) 0
x(3_49) 0
x(3_50) 0
x(3_51) 1
x(3_52) 0
x(3_53) 0
x(3_54) 0
x(4_55) 0
x(4_56) 0
x(4_57) 0
x(4_58) 0
x(4_59) 0
x(4_60) 0
x(4_61) 1
x(4_62) 0
x(4_63) 0
x(4_64) 0
x(4_65) 0
x(4_66) 0
x(4_67) 0
x(4_68) 0
x(5_69) 0
x(5_70) 0
x(5_71) 0
x(5_72) 0
x(5_73) 0
x(5_74) 0
x(5_75) 0
x(5_76) 0
x(5_77) 0
x(5_78) 0
x(5_79) 1
x(5_80) 0
x(5_81) 0
x(5_82) 0
x(5_83) 0
x(5_84) 0
x(5_85) 0
x(5_86) 0
x(5_87) 0
x(6_88) 0
x(6_89) 1
x(6_90) 0
x(6_91) 0
x(6_92) 0
x(6_93) 0
x(6_94) 0
x(6_95) 0
x(6_96) 0
x(6_97) 0
x(6_98) 0
x(7_99) 0
x(7_100) 0
x(7_101) 0
x(7_102) 0
x(7_103) 0
x(7_104) 0
x(7_105) 0
x(7_106) 0
x(7_107) 0
x(7_108) 1
x(8_109) 0
x(8_110) 0
x(8_111) 1
x(8_112) 0
x(8_113) 0
x(8_114) 0
x(8_115) 0
x(8_116) 0
x(8_117) 0
x(8_118) 0
x(8_119) 0
x(8_120) 0
x(8_121) 0
x(8_122) 0
x(8_123) 0
x(8_124) 0
x(8_125) 0
x(8_126) 0
x(8_127) 0
x(8_128) 0
x(9_129) 0
x(9_130) 0
x(9_131) 0
x(9_132) 0
x(9_133) 1
x(9_134) 0
x(9_135) 0
x(9_136) 0
x(9_137) 0
x(9_138) 0
x(9_139) 0
x(9_140) 0
x(9_141) 0
x(9_142) 0
x(10_143) 0
x(10_144) 1
x(10_145) 0
x(10_146) 0
x(10_147) 0
x(10_148) 0
x(10_149) 0
x(10_150) 0
x(10_151) 0
x(10_152) 0
x(10_153) 0
x(10_154) 0
x(10_155) 0
x(10_156) 0
x(10_157) 0
x(10_158) 0
x(10_159) 0
x(10_160) 0
x(10_161) 0
x(10_162) 0
x(11_163) 0
x(11_164) 0
x(11_165) 0
x(11_166) 1
x(11_167) 0
x(11_168) 0
x(11_169) 0
x(11_170) 0
x(11_171) 0
x(11_172) 0
x(11_173) 0
x(11_174) 0
x(11_175) 0
x(11_176) 0
x(11_177) 0
x(11_178) 0
x(11_179) 0
x(11_180) 0
x(11_181) 0
x(11_182) 0
x(12_183) 0
x(12_184) 0
x(12_185) 0
x(12_186) 0
x(12_187) 0
x(12_188) 0
x(12_189) 0
x(12_190) 0
x(12_191) 0
x(12_192) 0
x(12_193) 0
x(12_194) 0
x(12_195) 1
x(12_196) 0
x(12_197) 0
x(12_198) 0
x(12_199) 0
x(12_200) 0
x(12_201) 0
x(12_202) 0
x(13_203) 0
x(13_204) 0
x(13_205) 0
x(13_206) 0
x(13_207) 0
x(13_208) 0
x(13_209) 0
x(13_210) 0
x(13_211) 0
x(13_212) 0
x(13_213) 0
x(13_214) 0
x(13_215) 0
x(13_216) 0
x(13_217) 1
x(13_218) 0
x(13_219) 0
x(13_220) 0
x(13_221) 0
x(14_222) 0
x(14_223) 0
x(14_224) 1
x(14_225) 0
x(14_226) 0
x(14_227) 0
x(14_228) 0
x(14_229) 0
x(14_230) 0
x(14_231) 0
x(14_232) 0
x(15_233) 0
x(15_234) 0
x(15_235) 0
x(15_236) 0
x(15_237) 0
x(15_238) 0
x(15_239) 0
x(15_240) 0
x(15_241) 0
x(15_242) 0
x(15_243) 0
x(15_244) 0
x(15_245) 0
x(15_246) 1
x(15_247) 0
x(15_248) 0
x(15_249) 0
x(15_250) 0
x(16_251) 0
x(16_252) 0
x(16_253) 0
x(16_254) 0
x(16_255) 0
x(16_256) 1
x(16_257) 0
x(16_258) 0
x(16_259) 0
x(16_260) 0
x(16_261) 0
x(16_262) 0
x(16_263) 0
x(16_264) 0
x(16_265) 0
x(16_266) 0
x(16_267) 0
x(17_268) 0
x(17_269) 0
x(17_270) 0
x(17_271) 0
x(17_272) 0
x(17_273) 0
x(17_274) 0
x(17_275) 1
x(17_276) 0
x(17_277) 0
x(18_278) 0
x(18_279) 0
x(18_280) 0
x(18_281) 0
x(18_282) 0
x(18_283) 0
x(18_284) 0
x(18_285) 0
x(18_286) 0
x(18_287) 0
x(18_288) 0
x(18_289) 0
x(18_290) 1
x(18_291) 0
x(18_292) 0
x(18_293) 0
x(18_294) 0
x(18_295) 0
x(18_296) 0
x(18_297) 0
x(19_298) 0
x(19_299) 0
x(19_300) 0
x(19_301) 0
x(19_302) 0
x(19_303) 0
x(19_304) 0
x(19_305) 0
x(19_306) 0
x(19_307) 0
x(19_308) 0
x(19_309) 1
x(19_310) 0
x(19_311) 0
x(20_312) 0
x(20_313) 0
x(20_314) 0
x(20_315) 0
x(20_316) 0
x(20_317) 0
x(20_318) 0
x(20_319) 1
x(20_320) 0
x(20_321) 0
x(20_322) 0
x(21_323) 0
x(21_324) 0
x(21_325) 1
x(21_326) 0
x(21_327) 0
x(21_328) 0
x(21_329) 0
x(21_330) 0
x(21_331) 0
x(21_332) 0
x(21_333) 0
x(21_334) 0
x(21_335) 0
x(21_336) 0
x(21_337) 0
x(21_338) 0
x(22_339) 0
x(22_340) 0
x(22_341) 0
x(22_342) 0
x(22_343) 0
x(22_344) 0
x(22_345) 0
x(22_346) 0
x(22_347) 0
x(22_348) 0
x(22_349) 0
x(22_350) 0
x(22_351) 1
x(22_352) 0
x(22_353) 0
x(22_354) 0
x(23_355) 0
x(23_356) 0
x(23_357) 0
x(23_358) 0
x(23_359) 0
x(23_360) 0
x(23_361) 0
x(23_362) 0
x(23_363) 0
x(23_364) 0
x(23_365) 0
x(23_366) 0
x(23_367) 0
x(23_368) 0
x(23_369) 1
x(23_370) 0
x(23_371) 0
x(24_372) 0
x(24_373) 0
x(24_374) 0
x(24_375) 0
x(24_376) 0
x(24_377) 0
x(24_378) 0
x(24_379) 0
x(24_380) 0
x(24_381) 1
x(24_382) 0
x(24_383) 0
x(24_384) 0
x(24_385) 0
x(24_386) 0
x(24_387) 0
x(24_388) 0
x(24_389) 0
x(24_390) 0
x(24_391) 0
x(25_392) 0
x(25_393) 0
x(25_394) 0
x(25_395) 0
x(25_396) 0
x(25_397) 0
x(25_398) 0
x(25_399) 0
x(25_400) 1
x(25_401) 0
x(25_402) 0
x(25_403) 0
x(25_404) 0
x(25_405) 0
x(25_406) 0
x(25_407) 0
x_1_0 0
s_1_0 6.4022964797914028e-01
z_1_0 1
x_1_1 1.3114419102668762e+02
s_1_1 0
z_1_1 0
x_1_2 0
s_1_2 8.0517858825623989e-01
z_1_2 1
x_1_3 1.3000418639183044e+02
s_1_3 0
z_1_3 0
x_1_4 1.3074842095375061e+02
s_1_4 0
z_1_4 0
x_1_5 1.3065326142311096e+02
s_1_5 0
z_1_5 0
x_1_6 1.3075666522979736e+02
s_1_6 0
z_1_6 0
x_1_7 1.3035935854911804e+02
s_1_7 0
z_1_7 0
x_1_8 1.3062837171554565e+02
s_1_8 0
z_1_8 0
x_1_9 0
s_1_9 1.1514935317682102e+00
z_1_9 1
x_1_10 0
s_1_10 7.9328463698038831e-01
z_1_10 1
x_1_11 0
s_1_11 7.0154128316789865e-01
z_1_11 1
x_1_12 1.2767989778518677e+02
s_1_12 0
z_1_12 0
x_1_13 0
s_1_13 6.0461230645887554e-01
z_1_13 1
x_1_14 0
s_1_14 7.3589476570487022e-01
z_1_14 1
x_1_15 1.2929991722106934e+02
s_1_15 0
z_1_15 0
x_1_16 0
s_1_16 8.8599338801577687e-01
z_1_16 1
x_1_17 1.2967123198509216e+02
s_1_17 0
z_1_17 0
x_1_18 1.3083512997627258e+02
s_1_18 0
z_1_18 0
x_1_19 130.423348903656
s_1_19 0
z_1_19 0
x_1_20 0
s_1_20 6.5037720365216956e-01
z_1_20 1
x_1_21 1.2927083992958069e+02
s_1_21 0
z_1_21 0
x_1_22 0
s_1_22 9.2323064501397312e-01
z_1_22 1
x_1_23 0
s_1_23 9.5960974111221731e-01
z_1_23 1
x_1_24 1.2967005896568298e+02
s_1_24 0
z_1_24 0
x_1_25 1.2966554737091064e+02
s_1_25 0
z_1_25 0
x_1_26 1.2932283926010132e+02
s_1_26 0
z_1_26 0
x_1_27 1.2945153379440308e+02
s_1_27 0
z_1_27 0
x_1_28 1.2962143182754517e+02
s_1_28 0
z_1_28 0
x_1_29 0
s_1_29 5.4127787856850773e-01
z_1_29 1
x_1_30 0
s_1_30 7.1872313402127475e-01
z_1_30 1
x_1_31 1.3064760971069336e+02
s_1_31 0
z_1_31 0
x_1_32 1.2902452969551086e+02
s_1_32 0
z_1_32 0
x_1_33 1.2604417538642883e+02
s_1_33 0
z_1_33 0
x_1_34 0
s_1_34 7.6155511941760778e-01
z_1_34 1
x_1_35 0
s_1_35 4.4107595249079168e-01
z_1_35 1
x_1_36 1.3047378444671631e+02
s_1_36 0
z_1_36 0
x_1_37 1.2959028363227844e+02
s_1_37 0
z_1_37 0
x_1_38 0
s_1_38 7.2210592796909623e-01
z_1_38 1
x_1_39 1.2765263009071350e+02
s_1_39 0
z_1_39 0
x_1_40 0
s_1_40 4.6137570621795021e-01
z_1_40 1
x_1_41 1.2882284760475159e+02
s_1_41 0
z_1_41 0
x_1_42 1.3058874249458313e+02
s_1_42 0
z_1_42 0
x_1_43 0
s_1_43 0.436440690420568
z_1_43 1
x_1_44 0
s_1_44 4.7416672273539007e-01
z_1_44 1
x_1_45 1.2991265201568604e+02
s_1_45 0
z_1_45 0
x_1_46 1.2951969385147095e+02
s_1_46 0
z_1_46 0
x_1_47 1.2945539021492004e+02
s_1_47 0
z_1_47 0
x_1_48 1.3090972256660461e+02
s_1_48 0
z_1_48 0
x_1_49 0
s_1_49 7.4168836817261763e-01
z_1_49 1
x_1_50 0
s_1_50 5.4195010615512729e-01
z_1_50 1
x_1_51 0
s_1_51 7.4553258906234987e-01
z_1_51 1
x_1_52 1.3041002321243286e+02
s_1_52 0
z_1_52 0
x_1_53 1.2974619102478027e+02
s_1_53 0
z_1_53 0
x_1_54 0
s_1_54 0.751575012691319
z_1_54 1
x_1_55 1.2899993348121643e+02
s_1_55 0
z_1_55 0
x_1_56 0
s_1_56 8.2191863923799247e-01
z_1_56 1
x_1_57 1.3013947892189026e+02
s_1_57 0
z_1_57 0
x_1_58 1.3091953206062317e+02
s_1_58 0
z_1_58 0
x_1_59 1.2942869925498962e+02
s_1_59 0
z_1_59 0
x_1_60 0
s_1_60 4.7262106135895010e-01
z_1_60 1
x_1_61 1.2943528556823730e+02
s_1_61 0
z_1_61 0
x_1_62 1.2944962453842163e+02
s_1_62 0
z_1_62 0
x_1_63 1.2985190153121948e+02
s_1_63 0
z_1_63 0
x_1_64 1.3091226363182068e+02
s_1_64 0
z_1_64 0
x_1_65 0
s_1_65 5.6805918365716934e-01
z_1_65 1
x_1_66 0
s_1_66 5.8922031463589519e-01
z_1_66 1
x_1_67 0
s_1_67 7.1990374880260788e-01
z_1_67 1
x_1_68 1.2902711939811707e+02
s_1_68 0
z_1_68 0
x_1_69 1.2943430995941162e+02
s_1_69 0
z_1_69 0
x_1_70 1.2953562903404236e+02
s_1_70 0
z_1_70 0
x_1_71 1.3013589239120483e+02
s_1_71 0
z_1_71 0
x_1_72 1.2889923501014709e+02
s_1_72 0
z_1_72 0
x_1_73 1.3075508904457092e+02
s_1_73 0
z_1_73 0
x_1_74 1.2936451244354248e+02
s_1_74 0
z_1_74 0
x_1_75 1.2990704035758972e+02
s_1_75 0
z_1_75 0
x_1_76 0
s_1_76 5.1968765910714865e-01
z_1_76 1
x_1_77 0
s_1_77 8.3558170346077532e-01
z_1_77 1
x_1_78 0
s_1_78 7.3322249925695360e-01
z_1_78 1
x_1_79 1.3074397754669189e+02
s_1_79 0
z_1_79 0
x_1_80 1.3086591148376465e+02
s_1_80 0
z_1_80 0
x_1_81 1.2919298100471497e+02
s_1_81 0
z_1_81 0
x_1_82 1.2908718466758728e+02
s_1_82 0
z_1_82 0
x_1_83 1.2981599450111389e+02
s_1_83 0
z_1_83 0
x_1_84 0
s_1_84 5.6754513364285231e-01
z_1_84 1
x_1_85 0
s_1_85 8.6303281714208424e-01
z_1_85 1
x_1_86 1.2891654181480408e+02
s_1_86 0
z_1_86 0
x_1_87 1.2959444713592529e+02
s_1_87 0
z_1_87 0
x_1_88 1.3039809966087341e+02
s_1_88 0
z_1_88 0
x_1_89 0
s_1_89 8.1011162395589054e-01
z_1_89 1
x_1_90 1.3095884895324707e+02
s_1_90 0
z_1_90 0
x_1_91 0
s_1_91 7.2774081188254058e-01
z_1_91 1
x_1_92 1.3043033599853516e+02
s_1_92 0
z_1_92 0
x_1_93 1.3089593076705933e+02
s_1_93 0
z_1_93 0
x_1_94 1.3002802562713623e+02
s_1_94 0
z_1_94 0
x_1_95 1.3031972765922546e+02
s_1_95 0
z_1_95 0
x_1_96 1.3034939002990723e+02
s_1_96 0
z_1_96 0
x_1_97 1.3068948078155518e+02
s_1_97 0
z_1_97 0
x_1_98 1.3037644696235657e+02
s_1_98 0
z_1_98 0
x_1_99 0
s_1_99 0.448287553852424
z_1_99 1
x_1_100 1.3021786355972290e+02
s_1_100 0
z_1_100 0
x_1_101 1.2937894535064697e+02
s_1_101 0
z_1_101 0
x_1_102 1.2982151436805725e+02
s_1_102 0
z_1_102 0
x_1_103 0
s_1_103 0.787830907618627
z_1_103 1
x_1_104 1.3045749902725220e+02
s_1_104 0
z_1_104 0
x_1_105 1.2969708299636841e+02
s_1_105 0
z_1_105 0
x_1_106 0
s_1_106 7.5980714824981987e-01
z_1_106 1
x_1_107 0
s_1_107 4.9148584809154272e-01
z_1_107 1
x_1_108 1.2910754632949829e+02
s_1_108 0
z_1_108 0
x_1_109 1.2901164960861206e+02
s_1_109 0
z_1_109 0
x_1_110 0
s_1_110 0.52828895568382
z_1_110 1
x_1_111 1.3079765367507935e+02
s_1_111 0
z_1_111 0
x_1_112 1.3065683841705322e+02
s_1_112 0
z_1_112 0
x_1_113 1.3058817815780640e+02
s_1_113 0
z_1_113 0
x_1_114 0
s_1_114 1.0493637601030059e+00
z_1_114 1
x_1_115 1.3056887531280518e+02
s_1_115 0
z_1_115 0
x_1_116 1.3073634362220764e+02
s_1_116 0
z_1_116 0
x_1_117 1.3080106425285339e+02
s_1_117 0
z_1_117 0
x_1_118 1.2952723383903503e+02
s_1_118 0
z_1_118 0
x_1_119 0
s_1_119 5.0957336276769638e-01
z_1_119 1
x_1_120 1.3119072580337524e+02
s_1_120 0
z_1_120 0
x_1_121 0
s_1_121 5.6749313464388251e-01
z_1_121 1
x_1_122 0
s_1_122 6.2137259112205356e-01
z_1_122 1
x_1_123 1.2932647871971130e+02
s_1_123 0
z_1_123 0
x_1_124 1.2864693880081177e+02
s_1_124 0
z_1_124 0
x_1_125 0
s_1_125 7.3841258941683918e-01
z_1_125 1
x_1_126 0
s_1_126 7.2301336424425244e-01
z_1_126 1
x_1_127 0
s_1_127 8.6734159057959914e-01
z_1_127 1
x_1_128 1.3114661765098572e+02
s_1_128 0
z_1_128 0
x_1_129 1.2780726599693298e+02
s_1_129 0
z_1_129 0
x_1_130 1.3092883586883545e+02
s_1_130 0
z_1_130 0
x_1_131 1.3076674127578735e+02
s_1_131 0
z_1_131 0
x_1_132 1.3034393596649170e+02
s_1_132 0
z_1_132 0
x_1_133 1.2979079723358154e+02
s_1_133 0
z_1_133 0
x_1_134 1.2790231633186340e+02
s_1_134 0
z_1_134 0
x_1_135 1.2969345593452454e+02
s_1_135 0
z_1_135 0
x_1_136 0
s_1_136 8.4289308014558628e-01
z_1_136 1
x_1_137 0
s_1_137 5.9356934321112931e-01
z_1_137 1
x_1_138 0
s_1_138 8.1101986346766353e-01
z_1_138 1
x_1_139 1.3029231548309326e+02
s_1_139 0
z_1_139 0
x_1_140 0
s_1_140 8.8273560802917928e-01
z_1_140 1
x_1_141 1.3099180507659912e+02
s_1_141 0
z_1_141 0
x_1_142 1.3085806035995483e+02
s_1_142 0
z_1_142 0
x_1_143 0
s_1_143 6.7649841727688909e-01
z_1_143 1
x_1_144 1.3006788873672485e+02
s_1_144 0
z_1_144 0
x_1_145 0
s_1_145 0.709438840392977
z_1_145 1
x_1_146 1.3025581479072571e+02
s_1_146 0
z_1_146 0
x_1_147 1.3056618976593018e+02
s_1_147 0
z_1_147 0
x_1_148 0
s_1_148 6.1037004226818681e-01
z_1_148 1
x_1_149 0
s_1_149 0.634677762879619
z_1_149 1
x_1_150 1.3069889974594116e+02
s_1_150 0
z_1_150 0
x_1_151 0
s_1_151 6.8110002484172583e-01
z_1_151 1
x_1_152 1.3050997281074524e+02
s_1_152 0
z_1_152 0
x_1_153 0
s_1_153 5.0656691007316113e-01
z_1_153 1
x_1_154 1.2959687542915344e+02
s_1_154 0
z_1_154 0
x_1_155 0
s_1_155 8.5157679044641554e-01
z_1_155 1
x_1_156 1.3006037998199463e+02
s_1_156 0
z_1_156 0
x_1_157 1.3090174531936646e+02
s_1_157 0
z_1_157 0
x_1_158 0
s_1_158 5.8962256356608123e-01
z_1_158 1
x_1_159 0
s_1_159 5.3446809563320130e-01
z_1_159 1
x_2_0 8.8823988945061457e+04
